35
100
80	2
78	2
77	1
74	1
73	2
71	2
69	2
64	1
63	1
62	1
60	1
57	2
56	1
55	1
54	1
51	1
49	1
48	2
46	1
41	2
39	2
36	1
33	1
32	1
31	1
29	1
28	1
27	1
26	2
25	2
23	2
22	1
14	1
11	4
10	1
